c FILE /home/rafael/Documents/HappySet/MIHS/inputs/happygen/output/graph_scale_free_k20_p0.5_v100_20241127_083933.txt
c SOURCE This is a scale-free graph formed for the happy graph colouring problem.
c DESCRIPTION It was generated using the problem generator of Rhyd Lewis
c
c GRAPH STATS
c Seed                             = -1397392919
c Number of Nodes                  = 100
c Number of colours k              = 20
c Number of pre-assignments        = 50
c Number of links per new node     = 5
c Density                          = 0.0979798
c 
c The degrees of nodes 1 to 100, respectively, are as follows 
c [38, 38, 30, 29, 28, 28, 27, 23, 20, 20, 18, 17, 16, 15, 15, 15, 15, 15, 14, 14, 13, 13, 12, 11, 11, 11, 
c  10, 10, 10, 10, 9, 9, 9, 9, 9, 8, 8, 8, 8, 8, 8, 7, 7, 7, 7, 7, 7, 7, 7, 7, 7, 
c  7, 6, 6, 6, 6, 6, 6, 6, 6, 6, 6, 6, 6, 6, 6, 5, 5, 5, 5, 5, 5, 5, 5, 5, 5, 
c  5, 5, 5, 5, 5, 5, 5, 5, 5, 5, 5, 5, 5, 5, 5, 5, 5, 5, 5, 5, 5, 5, 5, 5] 
c  
p edge 100 485 20
e 1 3
e 1 4
e 1 5
e 1 6
e 1 8
e 1 9
e 1 10
e 1 13
e 1 14
e 1 18
e 1 20
e 1 22
e 1 24
e 1 25
e 1 27
e 1 31
e 1 42
e 1 43
e 1 44
e 1 48
e 1 50
e 1 51
e 1 52
e 1 54
e 1 58
e 1 61
e 1 62
e 1 64
e 1 67
e 1 68
e 1 71
e 1 73
e 1 81
e 1 86
e 1 88
e 1 89
e 1 98
e 1 99
e 2 4
e 2 5
e 2 6
e 2 7
e 2 8
e 2 9
e 2 10
e 2 12
e 2 14
e 2 15
e 2 16
e 2 19
e 2 21
e 2 22
e 2 24
e 2 26
e 2 27
e 2 28
e 2 31
e 2 34
e 2 37
e 2 40
e 2 42
e 2 45
e 2 46
e 2 52
e 2 53
e 2 55
e 2 58
e 2 67
e 2 69
e 2 72
e 2 73
e 2 74
e 2 76
e 2 83
e 2 97
e 2 98
e 3 4
e 3 5
e 3 6
e 3 7
e 3 8
e 3 10
e 3 11
e 3 16
e 3 17
e 3 20
e 3 21
e 3 23
e 3 26
e 3 35
e 3 39
e 3 42
e 3 47
e 3 51
e 3 58
e 3 59
e 3 60
e 3 68
e 3 71
e 3 72
e 3 75
e 3 79
e 3 95
e 3 98
e 3 99
e 4 5
e 4 6
e 4 9
e 4 10
e 4 12
e 4 15
e 4 18
e 4 21
e 4 24
e 4 26
e 4 34
e 4 36
e 4 41
e 4 43
e 4 46
e 4 48
e 4 59
e 4 62
e 4 64
e 4 74
e 4 76
e 4 84
e 4 87
e 4 88
e 4 90
e 4 100
e 5 6
e 5 7
e 5 9
e 5 10
e 5 13
e 5 17
e 5 19
e 5 20
e 5 21
e 5 25
e 5 31
e 5 35
e 5 36
e 5 37
e 5 39
e 5 47
e 5 60
e 5 67
e 5 73
e 5 75
e 5 77
e 5 79
e 5 87
e 5 90
e 6 7
e 6 9
e 6 10
e 6 12
e 6 14
e 6 19
e 6 24
e 6 30
e 6 37
e 6 40
e 6 42
e 6 49
e 6 50
e 6 53
e 6 55
e 6 63
e 6 64
e 6 67
e 6 69
e 6 76
e 6 82
e 6 97
e 6 100
e 7 8
e 7 10
e 7 12
e 7 13
e 7 17
e 7 19
e 7 22
e 7 23
e 7 29
e 7 32
e 7 36
e 7 40
e 7 42
e 7 43
e 7 56
e 7 60
e 7 62
e 7 71
e 7 75
e 7 77
e 7 85
e 7 88
e 7 96
e 8 10
e 8 12
e 8 13
e 8 15
e 8 16
e 8 25
e 8 27
e 8 31
e 8 32
e 8 35
e 8 43
e 8 44
e 8 46
e 8 54
e 8 55
e 8 56
e 8 66
e 8 69
e 8 79
e 9 10
e 9 11
e 9 16
e 9 17
e 9 20
e 9 21
e 9 22
e 9 24
e 9 39
e 9 61
e 9 67
e 9 80
e 9 81
e 9 89
e 9 96
e 10 11
e 10 19
e 10 28
e 10 32
e 10 39
e 10 43
e 10 54
e 10 65
e 10 70
e 10 81
e 10 96
e 11 12
e 11 14
e 11 15
e 11 23
e 11 27
e 11 31
e 11 37
e 11 40
e 11 44
e 11 55
e 11 61
e 11 74
e 11 82
e 11 84
e 11 99
e 12 25
e 12 27
e 12 28
e 12 32
e 12 33
e 12 34
e 12 38
e 12 44
e 12 47
e 12 66
e 12 90
e 13 15
e 13 19
e 13 28
e 13 37
e 13 46
e 13 53
e 13 60
e 13 63
e 13 73
e 13 85
e 13 96
e 13 100
e 14 18
e 14 21
e 14 24
e 14 28
e 14 29
e 14 38
e 14 46
e 14 57
e 14 83
e 14 93
e 14 94
e 15 18
e 15 29
e 15 39
e 15 51
e 15 59
e 15 60
e 15 63
e 15 79
e 15 96
e 15 100
e 16 22
e 16 23
e 16 36
e 16 50
e 16 52
e 16 62
e 16 68
e 16 70
e 16 71
e 16 84
e 16 93
e 17 22
e 17 40
e 17 41
e 17 50
e 17 51
e 17 54
e 17 56
e 17 57
e 17 80
e 17 89
e 17 93
e 18 20
e 18 34
e 18 38
e 18 49
e 18 52
e 18 55
e 18 56
e 18 64
e 18 65
e 18 87
e 18 91
e 19 22
e 19 25
e 19 26
e 19 29
e 19 47
e 19 59
e 19 69
e 19 70
e 20 28
e 20 30
e 20 33
e 20 47
e 20 72
e 20 84
e 20 85
e 20 92
e 20 97
e 21 26
e 21 34
e 21 38
e 21 57
e 21 68
e 21 70
e 21 83
e 22 32
e 22 33
e 22 61
e 22 71
e 22 78
e 22 81
e 23 30
e 23 36
e 23 77
e 23 85
e 23 86
e 23 91
e 23 92
e 23 98
e 24 38
e 24 45
e 24 49
e 24 72
e 24 94
e 25 44
e 25 48
e 25 66
e 25 76
e 25 78
e 25 97
e 26 33
e 26 35
e 26 41
e 26 45
e 26 53
e 26 76
e 27 33
e 27 53
e 27 59
e 27 65
e 27 72
e 28 45
e 28 48
e 28 54
e 28 58
e 29 39
e 29 79
e 29 80
e 29 81
e 29 84
e 29 98
e 30 38
e 30 40
e 30 82
e 30 91
e 30 94
e 30 95
e 30 97
e 31 36
e 31 45
e 31 57
e 31 70
e 32 57
e 32 58
e 32 73
e 32 87
e 33 78
e 33 82
e 33 94
e 33 100
e 34 49
e 34 64
e 34 83
e 34 87
e 35 47
e 35 62
e 35 77
e 35 83
e 35 95
e 36 68
e 36 88
e 37 48
e 37 56
e 37 69
e 38 75
e 38 95
e 39 61
e 39 92
e 40 74
e 40 77
e 41 54
e 41 62
e 41 86
e 41 89
e 41 99
e 42 78
e 42 92
e 43 49
e 43 90
e 44 80
e 44 86
e 45 78
e 45 93
e 46 86
e 46 90
e 47 65
e 48 75
e 48 93
e 49 74
e 49 85
e 50 65
e 50 82
e 50 89
e 51 58
e 51 91
e 51 99
e 52 56
e 52 88
e 52 95
e 53 63
e 55 63
e 57 94
e 59 80
e 60 66
e 61 92
e 63 65
e 64 66
e 66 91
n 9 6
n 14 6
n 19 8
n 21 6
n 27 15
n 30 11
n 31 9
n 32 1
n 37 19
n 43 16
n 44 6
n 45 9
n 46 6
n 47 8
n 48 19
n 51 3
n 52 5
n 54 17
n 55 13
n 60 6
n 62 20
n 63 13
n 64 18
n 67 6
n 68 6
n 71 5
n 72 15
n 73 1
n 74 19
n 75 19
n 76 6
n 77 10
n 78 9
n 79 12
n 80 6
n 81 6
n 82 11
n 83 6
n 84 20
n 85 14
n 86 6
n 87 1
n 88 5
n 89 6
n 92 2
n 96 6
n 97 11
n 98 4
n 99 3
n 100 7
